! XTB2 NoUseSym @job
 
* xyz  0 1
@geometry
*
